pair_coeff 	 1 1 0.17 3.0 	 # os os
pair_coeff 	 1 2 0.18894443627691185 2.979932885150268 	 # os o2
pair_coeff 	 1 3 0.10592450141492289 3.24037034920393 	 # os ct
pair_coeff 	 1 4 0.1336038921588739 3.3541019662496847 	 # os c2
pair_coeff 	 1 5 0.05049752469181039 2.694438717061496 	 # os hc
pair_coeff 	 1 6 0.18439088914585774 3.3496268448888453 	 # os p
pair_coeff 	 1 7 0.10183319694480775 3.058480014647799 	 # os f
pair_coeff 	 1 8 0.009219544457292887 2.9342801502242417 	 # os li+
pair_coeff 	 2 2 0.21 2.96 	 # o2 o2
pair_coeff 	 2 3 0.1177285012220915 3.2186953878862163 	 # o2 ct
pair_coeff 	 2 4 0.14849242404917498 3.331666249791536 	 # o2 c2
pair_coeff 	 2 5 0.05612486080160912 2.6764155133312166 	 # o2 hc
pair_coeff 	 2 6 0.20493901531919198 3.327221062688802 	 # o2 p
pair_coeff 	 2 7 0.11318127053536728 3.038021724741283 	 # o2 f
pair_coeff 	 2 8 0.010246950765959599 2.914652637965629 	 # o2 li+
pair_coeff 	 3 3 0.066 3.5 	 # ct ct
pair_coeff 	 3 4 0.08324662155306965 3.6228441865473595 	 # ct c2
pair_coeff 	 3 5 0.03146426544510455 2.9103264421710495 	 # ct hc
pair_coeff 	 3 6 0.11489125293076058 3.6180105030251086 	 # ct p
pair_coeff 	 3 7 0.06345076831686122 3.303535984365843 	 # ct f
pair_coeff 	 3 8 0.005744562646538029 3.1693847983480956 	 # ct li+
pair_coeff 	 4 4 0.105 3.75 	 # c2 c2
pair_coeff 	 4 5 0.03968626966596886 3.0124740662784135 	 # c2 hc
pair_coeff 	 4 6 0.14491376746189438 3.744996662214801 	 # c2 p
pair_coeff 	 4 7 0.0800312438988674 3.4194846102885155 	 # c2 f
pair_coeff 	 4 8 0.007245688373094719 3.28062494046485 	 # c2 li+
pair_coeff 	 5 5 0.015 2.42 	 # hc hc
pair_coeff 	 5 6 0.05477225575051661 3.0084547528590155 	 # hc p
pair_coeff 	 5 7 0.030248966924508347 2.74696232227528 	 # hc f
pair_coeff 	 5 8 0.0027386127875258306 2.635412681156407 	 # hc li+
pair_coeff 	 6 6 0.2 3.74 	 # p p
pair_coeff 	 6 7 0.11045361017187261 3.414922253873432 	 # p f
pair_coeff 	 6 8 0.01 3.276247853871865 	 # p li+
pair_coeff 	 7 7 0.061 3.1181 	 # f f
pair_coeff 	 7 8 0.00552268050859363 2.991479065612862 	 # f li+
pair_coeff 	 8 8 0.0005 2.87 	 # li+ li+
